CMD:
./solvers/bin/cadical --plain --no-reduce -t 1600 ./data/cnfs//qspiflash_dualflexpress_divthree-p134/qspiflash_dualflexpress_divthree-p134.43.cnf

c --- [ banner ] -------------------------------------------------------------
c 
c CaDiCaL SAT Solver
c Copyright (c) 2016-2024
c A. Biere, M. Fleury, N. Froleyks, K. Fazekas, F. Pollitt, T. Faller
c JKU Linz, University of Freiburg, TU Wien
c 
c Version 2.1.3 5296d3d2a9bf48c154ab2acb5e44625776d821bf
c g++ (Gentoo 12.3.1_p20230526 p2) 12.3.1 20230526 -Wall -Wextra -O3 -DNDEBUG
c Sat Aug 9 07:26:21 PDT 2025 Linux cedar2.int.cedar.computecanada.ca 5.14.0-362.24.2.el9_3.x86_64 x86_64
c 
c --- [ limit ] --------------------------------------------------------------
c 
c setting time limit to 1600 seconds real time (due to '-t 1600')
c 
c --- [ parsing input ] ------------------------------------------------------
c 
c reading DIMACS file from './data/cnfs//qspiflash_dualflexpress_divthree-p134/qspiflash_dualflexpress_divthree-p134.43.cnf'
c opening file to read './data/cnfs//qspiflash_dualflexpress_divthree-p134/qspiflash_dualflexpress_divthree-p134.43.cnf'
c found 'p cnf 131574 383666' header
c parsed 383666 clauses in 0.07 seconds process time
c 
c --- [ options ] ------------------------------------------------------------
c 
c   --compact=false                (different from default 'true')
c   --decompose=false              (different from default 'true')
c   --deduplicate=false            (different from default 'true')
c   --elim=false                   (different from default 'true')
c   --probe=false                  (different from default 'true')
c   --reduce=false                 (different from default 'true')
c   --subsume=false                (different from default 'true')
c   --ternary=false                (different from default 'true')
c   --transred=false               (different from default 'true')
c   --vivify=false                 (different from default 'true')
c 
c --- [ solving ] ------------------------------------------------------------
c 
c time measured in process time since initialization
c 
c  seconds  reductions  redundant  irredundant
c         MB    restarts       trail       variables
c          level   conflicts       glue          remaining
c 
c *  0.07 61  0 0   0    0    0  0% 0 363096 117918 90%
c {  0.09 63  0 0   0    0    0  0% 0 363096 117918 90%
c i  0.10 63 68 0   8   99   87 19% 3 363096 117914 90%
c i  0.13 64 44 0  30  385  356 21% 3 363096 117910 90%
c i  0.13 64 42 0  41  452  415 20% 3 363096 117906 90%
c i  0.14 64 41 0  45  488  443 20% 3 363096 117885 90%
c i  0.14 64 40 0  50  506  457 20% 3 363096 117745 89%
c i  0.16 64 44 0  56  713  645 21% 3 363096 117738 89%
c i  0.16 64 43 0  56  725  656 21% 3 363096 117725 89%
c i  0.18 64 41 0  68  847  766 21% 3 363096 117690 89%
c i  0.18 64 41 0  68  851  769 21% 3 363096 117682 89%
c }  0.20 64 38 0  82 1000  895 21% 3 363096 117682 89%
c [  0.20 64  0 0  82 1000  895  0% 0 363096 117682 89%
c O  0.21 64 381 0  82 1004  899 39% 3 363096 117682 89%
c i  0.21 64 110 0  82 1016  910 22% 2 363096 117675 89%
c i  0.21 64 99 0  82 1018  911 21% 2 363096 117661 89%
c i  0.22 64 22 0  82 1216 1089 17% 3 363096 115932 88%
c i  0.22 64 21 0  82 1219 1090 17% 3 363096 115257 88%
c i  0.22 64 21 0  82 1227 1095 17% 3 363096 115256 88%
c ]  0.22 64 21 0  82 1229 1095 17% 3 363096 113163 86%
c 
c  seconds  reductions  redundant  irredundant
c         MB    restarts       trail       variables
c          level   conflicts       glue          remaining
c 
c 0  0.22 64 21 0  82 1229 1095 17% 3 363096 113163 86%
c 
c --- [ result ] -------------------------------------------------------------
c 
s UNSATISFIABLE
c 
c --- [ run-time profiling ] -------------------------------------------------
c 
c process time taken by individual solving procedures
c (percentage relative to process time for solving)
c 
c         0.16   99.92% search
c         0.11   67.18% unstable
c         0.07   42.38% parse
c         0.03   17.47% stable
c         0.02   15.25% lucky
c         0.00    0.00% simplify
c   =================================
c         0.16   70.08% solve
c 
c last line shows process time for solving
c (percentage relative to total process time)
c 
c --- [ statistics ] ---------------------------------------------------------
c 
c chronological:               642        52.24 %  of conflicts
c conflicts:                  1229      7794.76    per second
c decisions:                  4963     31477.14    per second
c fixed:                     18377        13.97 %  of all variables
c learned:                    1146        93.25 %  per conflict
c learned_lits:              12104       100.00 %  learned literals
c minimized:                     0         0.00 %  learned literals
c shrunken:                   1114         9.20 %  learned literals
c minishrunken:               1475        12.19 %  learned literals
c otfs:                         18         1.46 %  of conflict
c propagations:            2577230        16.35 M  per second
c rephased:                      1      1229.00    interval
c restarts:                     82        14.99    interval
c stabilizing:                   1        18.63 %  of conflicts
c subsumed:                     36         0.01 %  of all clauses
c strengthened:                 17         0.00 %  of all clauses
c 
c seconds are measured in process time for solving
c 
c --- [ resources ] ----------------------------------------------------------
c 
c total process time since initialization:         0.23    seconds
c total real time since initialization:            0.23    seconds
c maximum resident set size of process:           63.18    MB
c 
c --- [ shutting down ] ------------------------------------------------------
c 
c exit 20
